s td 48 5 52
b 1 1 2 14
b 2 12 13 26
b 3 27 40 41
b 4 39 51 52
b 5 2 3 14 15
b 6 11 12 25 26
b 7 3 4 17 31 45
b 8 4 5 17 31 45
b 9 5 17 19 31 45
b 10 5 19 31 33 45
b 11 5 19 33 45 47
b 12 5 7 19 33 47
b 13 5 6 7 19
b 14 7 19 21 33 47
b 15 7 21 33 35 47
b 16 7 21 35 47 49
b 17 7 9 21 35 49
b 18 7 8 9 21
b 19 9 21 23 35 49
b 20 9 11 23 35 49
b 21 9 10 11 23
b 22 11 23 35 37 49
b 23 11 23 25 37 49
b 24 11 23 24 25 37
b 25 11 25 37 39 49
b 26 11 25 26 39
b 27 25 37 39 49 50
b 28 25 37 38 39 50
b 29 23 35 36 37 49
b 30 9 21 22 23 35
b 31 35 47 48 49
b 32 21 33 34 35 47
b 33 7 19 20 21 33
b 34 33 45 46 47
b 35 19 31 32 33 45
b 36 5 17 18 19 31
b 37 3 17 31 43 45
b 38 3 17 29 31 43
b 39 3 15 17 29 43
b 40 3 15 27 29 43
b 41 3 14 15 27
b 42 15 27 29 42 43
b 43 15 27 28 29 42
b 44 3 15 16 17 29
b 45 17 29 30 31 43
b 46 31 43 44 45
b 47 27 28 41 42
b 48 38 39 50 51
1 5
2 6
3 47
4 48
5 41
6 26
7 8
7 37
8 9
9 10
9 36
10 11
10 35
11 12
11 34
12 13
12 14
14 15
14 33
15 16
15 32
16 17
16 31
17 18
17 19
19 20
19 30
20 21
20 22
22 23
22 29
23 24
23 25
25 26
25 27
27 28
28 48
37 38
37 46
38 39
38 45
39 40
39 44
40 41
40 42
42 43
43 47
